language ESSENCE' 1.0
letting lastdx=106
letting cage be [
[16,12,14,0,0, 0,0, 0,0, 0,0],
[7,16,3,0,0, 0,0, 0,0, 0,0],
[16,1,12,0,0, 0,0, 0,0, 0,0],
[32,1,15,1,16,2,16,2,15,0,0],
[14,6,5,0,0, 0,0, 0,0, 0,0],
[7,13,6,0,0, 0,0, 0,0, 0,0],
[40,1,14,1,13,2,13,3,13,3,12],
[42,10,6,10,5,10,4,10,3,0,0],
[18,13,14,13,13,0,0, 0,0, 0,0],
[35,8,15,8,14,9,14,0,0, 0,0],
[4,15,7,0,0, 0,0, 0,0, 0,0],
[40,4,15,3,15,3,16,4,16,0,0],
[11,9,10,0,0, 0,0, 0,0, 0,0],
[15,14,13,14,14,0,0, 0,0, 0,0],
[33,8,16,9,16,9,15,10,15,10,16],
[14,8,4,0,0, 0,0, 0,0, 0,0],
[3,6,2,0,0, 0,0, 0,0, 0,0],
[13,11,16,0,0, 0,0, 0,0, 0,0],
[9,2,14,0,0, 0,0, 0,0, 0,0],
[13,9,3,0,0, 0,0, 0,0, 0,0],
[5,7,2,0,0, 0,0, 0,0, 0,0],
[25,13,5,13,4,13,3,14,3,0,0],
[20,13,7,12,7,11,7,0,0, 0,0],
[43,9,13,10,13,11,13,12,13,12,12],
[45,14,2,14,1,15,1,0,0, 0,0],
[35,4,1,3,1,2,1,0,0, 0,0],
[17,15,12,14,12,0,0, 0,0, 0,0],
[29,4,4,4,5,5,5,0,0, 0,0],
[10,9,2,0,0, 0,0, 0,0, 0,0],
[3,4,12,0,0, 0,0, 0,0, 0,0],
[35,7,11,6,11,6,10,6,9,0,0],
[12,5,12,5,13,0,0, 0,0, 0,0],
[28,6,4,6,3,0,0, 0,0, 0,0],
[2,8,1,0,0, 0,0, 0,0, 0,0],
[3,7,7,0,0, 0,0, 0,0, 0,0],
[8,14,5,0,0, 0,0, 0,0, 0,0],
[12,14,15,0,0, 0,0, 0,0, 0,0],
[8,2,2,0,0, 0,0, 0,0, 0,0],
[9,5,10,4,10,0,0, 0,0, 0,0],
[24,11,9,10,9,0,0, 0,0, 0,0],
[8,6,6,0,0, 0,0, 0,0, 0,0],
[16,6,7,6,8,0,0, 0,0, 0,0],
[7,7,13,0,0, 0,0, 0,0, 0,0],
[1,12,1,0,0, 0,0, 0,0, 0,0],
[21,10,2,11,2,12,2,0,0, 0,0],
[3,16,4,0,0, 0,0, 0,0, 0,0],
[7,15,16,0,0, 0,0, 0,0, 0,0],
[24,11,14,10,14,11,15,0,0, 0,0],
[18,2,7,2,6,2,5,0,0, 0,0],
[2,7,5,0,0, 0,0, 0,0, 0,0],
[14,6,14,6,13,0,0, 0,0, 0,0],
[10,1,10,2,10,0,0, 0,0, 0,0],
[3,1,3,0,0, 0,0, 0,0, 0,0],
[8,9,11,9,12,10,12,0,0, 0,0],
[14,12,16,13,16,14,16,0,0, 0,0],
[32,8,9,8,10,7,10,7,9,0,0],
[26,15,11,15,10,15,9,0,0, 0,0],
[5,5,15,6,15,0,0, 0,0, 0,0],
[5,15,6,0,0, 0,0, 0,0, 0,0],
[37,1,11,2,11,2,12,3,11,0,0],
[33,3,5,3,6,3,7,3,8,0,0],
[9,13,9,14,9,14,8,0,0, 0,0],
[27,12,11,11,11,11,12,0,0, 0,0],
[46,15,13,15,14,15,15,16,15,16,16],
[32,5,3,5,4,5,2,5,1,0,0],
[19,15,4,14,4,0,0, 0,0, 0,0],
[36,5,14,4,14,3,14,4,13,0,0],
[21,13,15,12,15,0,0, 0,0, 0,0],
[48,16,5,15,5,16,6,16,7,0,0],
[33,5,8,4,8,4,7,0,0, 0,0],
[13,8,7,0,0, 0,0, 0,0, 0,0],
[18,10,1,9,1,11,1,0,0, 0,0],
[18,8,8,7,8,9,8,9,9,0,0],
[8,16,10,0,0, 0,0, 0,0, 0,0],
[19,13,2,13,1,0,0, 0,0, 0,0],
[10,12,6,11,6,11,5,0,0, 0,0],
[10,12,8,13,8,0,0, 0,0, 0,0],
[20,6,16,5,16,0,0, 0,0, 0,0],
[4,3,10,0,0, 0,0, 0,0, 0,0],
[20,2,4,1,4,0,0, 0,0, 0,0],
[10,5,9,0,0, 0,0, 0,0, 0,0],
[2,9,4,0,0, 0,0, 0,0, 0,0],
[33,5,6,4,6,5,7,0,0, 0,0],
[21,7,1,6,1,0,0, 0,0, 0,0],
[6,2,3,0,0, 0,0, 0,0, 0,0],
[9,5,11,4,11,0,0, 0,0, 0,0],
[48,9,6,8,6,7,6,8,5,9,5],
[17,4,9,3,9,0,0, 0,0, 0,0],
[16,15,8,0,0, 0,0, 0,0, 0,0],
[28,10,11,10,10,11,10,0,0, 0,0],
[20,1,2,1,1,0,0, 0,0, 0,0],
[15,16,14,16,13,0,0, 0,0, 0,0],
[40,4,3,4,2,3,2,3,3,3,4],
[16,1,5,1,6,1,7,0,0, 0,0],
[15,6,12,0,0, 0,0, 0,0, 0,0],
[31,7,3,7,4,8,3,8,2,0,0],
[8,7,12,0,0, 0,0, 0,0, 0,0],
[34,7,14,7,15,7,16,0,0, 0,0],
[27,8,11,8,12,8,13,0,0, 0,0],
[16,9,7,0,0, 0,0, 0,0, 0,0],
[38,10,7,10,8,11,8,0,0, 0,0],
[21,14,6,14,7,0,0, 0,0, 0,0],
[14,14,10,14,11,0,0, 0,0, 0,0],
[3,15,2,15,3,0,0, 0,0, 0,0],
[16,16,1,16,2,0,0, 0,0, 0,0],
[14,16,8,16,9,0,0, 0,0, 0,0],
[21,16,11,16,12,0,0, 0,0, 0,0]
]
